c --- [ banner ] -------------------------------------------------------------
c 
c CaDiCaL Radically Simplified CDCL SAT Solver
c Copyright (c) 2016-2021 A. Biere, M. Fleury, N. Froleyks
c 
c Version 1.5.2 a5f15211db36c3956764e18194dd5bd63bf3b5e6
c g++ (GCC) 9.3.0 -Wall -Wextra -O3 -DNDEBUG
c Fri Oct 21 01:27:37 EDT 2022 Linux gra-login3 3.10.0-1160.66.1.el7.x86_64 x86_64
c 
c --- [ limit ] --------------------------------------------------------------
c 
c setting conflict limit to 200000 conflicts (due to '200000')
c 
c --- [ parsing input ] ------------------------------------------------------
c 
c reading DIMACS file from '33.cubes1639.adj'
c opening file to read '33.cubes1639.adj'
c found 'p cnf 6160 1595479' header
c parsed 1595479 clauses in 19.11 seconds process time
c closing file '33.cubes1639.adj'
c after reading 1457566804 bytes 1390.0 MB
c 
c --- [ options ] ------------------------------------------------------------
c 
c all options are set to their default value
c 
c --- [ solving ] ------------------------------------------------------------
c 
c time measured in process time since initialization
c 
c  seconds    reductions  redundant   irredundant
c          MB     restarts       trail       variables
c            level   conflicts       glue         remaining
c 
c * 19.11 1370  0 0   0    0    0  0% 0 1595422 2407 39%
c { 19.72 1407  0 0   0    0    0  0% 0 1595422 2407 39%
c i 20.02 1416 750 0   0   13   12 30% 1 1595422 2400 39%
c i 22.90 1488 141 0  17  186   68 21% 13 1595422 2394 39%
c i 24.43 1500 127 0  30  237  111 22% 17 1595422 2393 39%
c i 25.89 1511 119 0  39  273  141 22% 18 1595422 2392 39%
c - 31.65 1472 112 1  47  300  165 22% 18 640332 2392 39%
c i 32.13 1474 110 1  52  322  182 23% 19 640332 2391 39%
c i 32.33 1474 108 1  55  332  188 23% 19 640332 2382 39%
c i 32.37 1474 107 1  56  338  193 23% 19 640332 2381 39%
c i 32.38 1474 106 1  57  339  193 23% 19 640332 2380 39%
c i 32.38 1474 106 1  57  340  193 23% 19 640332 2379 39%
c i 32.38 1474 106 1  57  341  193 23% 19 640332 2378 39%
c i 32.38 1474 105 1  58  343  194 23% 19 640332 2377 39%
c i 32.38 1474 105 1  58  344  194 23% 19 640332 2376 39%
c i 32.44 1474 104 1  59  347  196 23% 19 640332 2375 39%
c i 32.66 1474 103 1  60  350  198 23% 19 640332 2374 39%
c i 32.95 1475 96 1  60  401  240 23% 18 640332 2373 39%
c i 33.03 1475 93 1  60  421  257 23% 18 640332 2372 39%
c i 33.04 1475 92 1  60  432  264 23% 18 640332 2371 38%
c 
c  seconds    reductions  redundant   irredundant
c          MB     restarts       trail       variables
c            level   conflicts       glue         remaining
c 
c i 33.23 1475 90 1  61  448  277 24% 18 640332 2370 38%
c i 33.71 1475 83 1  61  517  337 24% 18 640332 2369 38%
c i 33.75 1476 82 1  61  521  338 24% 18 640332 2368 38%
c i 33.76 1476 82 1  61  528  341 24% 18 640332 2367 38%
c i 33.76 1476 81 1  61  531  343 24% 18 640332 2366 38%
c i 33.78 1476 81 1  61  533  344 24% 18 640332 2365 38%
c i 33.86 1476 79 1  61  552  357 24% 18 640332 2364 38%
c i 33.88 1476 79 1  61  554  358 24% 18 640332 2363 38%
c i 33.96 1476 78 1  62  564  367 24% 18 640332 2362 38%
c i 34.12 1476 77 1  64  578  379 24% 18 640332 2361 38%
c i 34.22 1476 76 1  67  590  388 25% 18 640332 2360 38%
c i 34.29 1476 76 1  68  592  389 25% 18 640332 2359 38%
c i 34.48 1476 73 1  68  623  407 25% 18 640332 2358 38%
c i 34.54 1476 73 1  68  624  407 25% 18 640332 2357 38%
c i 34.55 1476 73 1  68  627  409 25% 18 640332 2356 38%
c i 34.57 1476 72 1  68  632  413 25% 18 640332 2355 38%
c i 34.59 1476 72 1  68  635  415 25% 18 640332 2354 38%
c i 34.63 1476 72 1  68  636  415 25% 18 640332 2353 38%
c i 34.71 1477 71 1  68  653  427 25% 18 640332 2352 38%
c i 34.74 1477 70 1  68  659  432 25% 18 640332 2351 38%
c 
c  seconds    reductions  redundant   irredundant
c          MB     restarts       trail       variables
c            level   conflicts       glue         remaining
c 
c i 35.20 1477 68 1  71  717  478 25% 18 640332 2350 38%
c i 35.25 1477 68 1  71  722  481 25% 18 640332 2349 38%
c i 35.33 1477 68 1  72  731  489 25% 18 640332 2348 38%
c i 35.35 1477 68 1  73  734  491 25% 18 640332 2347 38%
c i 35.37 1477 67 1  74  736  492 25% 18 640332 2346 38%
c i 35.41 1477 68 1  75  740  495 25% 18 640332 2345 38%
c i 35.73 1478 66 1  77  790  516 25% 17 640332 2344 38%
c i 35.77 1478 67 1  77  795  519 25% 17 640332 2342 38%
c i 35.78 1478 67 1  77  800  522 25% 17 640332 2340 38%
c i 35.81 1478 67 1  77  807  526 25% 18 640332 2338 38%
c i 35.83 1478 68 1  77  812  529 25% 18 640332 2336 38%
c i 36.11 1478 69 1  82  837  541 25% 18 640332 2335 38%
c i 36.33 1478 70 1  88  862  563 25% 20 640332 2334 38%
c i 36.54 1478 70 1  93  882  579 25% 21 640332 2333 38%
c i 36.62 1478 70 1  95  893  589 25% 20 640332 2332 38%
c i 36.95 1479 69 1 100  928  609 25% 20 640332 2331 38%
c i 37.02 1479 69 1 101  932  612 25% 20 640332 2330 38%
c i 37.12 1479 69 1 103  939  618 25% 21 640332 2313 38%
c i 37.14 1479 70 1 104  941  618 25% 21 640332 2305 37%
c } 37.85 1479 71 1 118 1001  668 25% 21 640332 2286 37%
c 
c  seconds    reductions  redundant  irredundant
c          MB     restarts       trail      variables
c            level   conflicts       glue        remaining
c 
c [ 37.85 1479  0 1 118 1001  668  0% 0 640332 2286 37%
c O 37.85 1479  1 1 118 1002  668 12% 0 640332 2286 37%
c i 37.85 1479  1 1 118 1002  668 12% 0 640332 2272 37%
c i 37.85 1479  1 1 118 1003  668 13% 0 640332 2265 37%
c i 38.06 1479 16 1 118 1040  677 21% 14 640332 2264 37%
c i 38.49 1479 34 1 118 1095  723 27% 27 640332 2263 37%
c i 38.51 1479 35 1 118 1101  727 27% 27 640332 2262 37%
c i 38.51 1479 35 1 118 1105  730 27% 27 640332 2261 37%
c i 38.59 1479 34 1 118 1125  748 27% 26 640332 2260 37%
c i 38.59 1479 33 1 118 1126  748 27% 26 640332 2259 37%
c i 38.60 1479 33 1 118 1131  752 28% 26 640332 2258 37%
c i 38.64 1479 33 1 118 1138  758 28% 25 640332 2257 37%
c i 38.80 1479 33 1 118 1190  795 28% 24 640332 2256 37%
c i 38.85 1479 31 1 118 1231  825 29% 23 640332 2255 37%
c i 38.86 1479 31 1 118 1236  828 29% 23 640332 2254 37%
c i 38.86 1479 31 1 118 1237  828 29% 23 640332 2253 37%
c i 38.89 1479 30 1 118 1264  853 29% 23 640332 2252 37%
c i 38.92 1479 30 1 118 1299  879 30% 23 640332 2251 37%
c i 38.95 1479 30 1 118 1312  889 30% 23 640332 2250 37%
c i 39.04 1479 30 1 118 1364  935 30% 23 640332 2249 37%
c 
c  seconds    reductions  redundant   irredundant
c          MB     restarts       trail       variables
c            level   conflicts       glue         remaining
c 
c - 40.34 1680 30 2 118 1383  878 30% 23 521078 2249 37%
c i 40.49 1597 30 2 118 1390  881 30% 23 521078 2248 36%
c i 40.59 1597 29 2 118 1406  892 30% 23 521078 2247 36%
c i 41.21 1552 28 2 119 2125 1418 31% 23 521078 2246 36%
c i 41.32 1552 27 2 119 2346 1578 31% 23 521078 2245 36%
c - 42.20 1551 27 3 119 2930 1576 32% 23 521066 2245 36%
c ] 42.70 1551 27 3 119 3003 1633 54% 23 521066 2245 36%
c { 42.70 1551 71 3 119 3003 1633 68% 21 521066 2245 36%
c F 42.71 1551 71 3 120 3004 1634 68% 21 521066 2245 36%
c i 43.96 1551 66 3 134 3184 1786 64% 21 521066 2244 36%
c i 45.34 1550 63 3 153 3403 1949 60% 21 521066 2241 36%
c i 46.39 1551 61 3 180 3587 2070 57% 21 521066 2240 36%
c i 46.84 1551 59 3 198 3720 2184 56% 21 521066 2239 36%
c i 46.84 1551 59 3 198 3721 2184 56% 21 521066 2238 36%
c i 46.89 1551 58 3 198 3768 2216 56% 21 521066 2237 36%
c i 48.22 1551 56 3 225 4125 2514 53% 22 521066 2236 36%
c i 49.11 1551 56 3 236 4205 2578 52% 22 521066 2235 36%
c i 49.34 1551 56 3 236 4267 2615 52% 21 521066 2234 36%
c i 51.18 1551 56 3 287 4547 2854 51% 23 521066 2233 36%
c - 54.16 1547 54 4 332 4993 2302 50% 23 521034 2233 36%
c 
c  seconds    reductions  redundant   irredundant
c          MB     restarts       trail       variables
c            level   conflicts       glue         remaining
c 
c 3 55.02 1547 54 4 332 5001 2967 50% 23 521012 2222 36%
c 2 55.13 1547 54 4 332 5001 3041 50% 23 521012 2222 36%
c p 63.30 1547 54 4 332 5001 4950 50% 23 521012 2199 36%
c d 63.86 1547 54 4 332 5001 4840 50% 23 520943 2198 36%
c # 65.25 1547 45 4 336 6006 5462 51% 22 520943 2198 36%
c } 71.46 1547 44 4 445 7003 6295 50% 22 520943 2198 36%
c [ 71.46 1547 27 4 445 7003 6295 54% 23 520943 2198 36%
c - 72.98 1352 35 5 446 7568 3200 50% 28 520943 2198 36%
c ] 73.32 1352 38 5 446 7887 3436 50% 31 520943 2198 36%
c 1 73.32 1352 38 5 446 7887 3436 50% 31 520943 2198 36%
c 
c --- [ writing output ] -----------------------------------------------------
c 
c writing simplified CNF to DIMACS file 'simp/33.cubes1639.adj.simp1'
c * 73.32 1352 38 5 446 7887 3436 50% 31 520943 2198 36%
c opening file to write 'simp/33.cubes1639.adj.simp1'
c writing 'p cnf 6160 520943' header
c closing file 'simp/33.cubes1639.adj.simp1'
c after writing 215501064 bytes 205.5 MB
c wrote 520943 clauses in 1.57 seconds process time
c 
c --- [ writing extension ] --------------------------------------------------
c 
c writing extension stack to 'simp/33.cubes1639.adj.ext1'
c opening file to write 'simp/33.cubes1639.adj.ext1'
c closing file 'simp/33.cubes1639.adj.ext1'
c after writing 12454 bytes 0.0 MB
c wrote 830 witnesses in 0.00 seconds process time
c 
c --- [ result ] -------------------------------------------------------------
c 
s SATISFIABLE
c 
c --- [ run-time profiling ] -------------------------------------------------
c 
c process time taken by individual solving procedures
c (percentage relative to process time for solving)
c 
c        44.55   82.19% search
c        37.24   68.70% unstable
c        19.11   35.24% parse
c         9.66   17.81% simplify
c         8.16   15.06% probe
c         6.71   12.37% stable
c         0.61    1.12% lucky
c         0.08    0.15% ternary
c   =================================
c        54.21   72.39% solve
c 
c last line shows process time for solving
c (percentage relative to total process time)
c 
c --- [ statistics ] ---------------------------------------------------------
c 
c chronological:              1939        24.58 %  of conflicts
c conflicts:                  7887       145.49    per second
c decisions:                 47045       867.82    per second
c fixed:                       806        13.08 %  of all variables
c learned:                    7672        97.27 %  per conflict
c learned_lits:            1260886       100.00 %  learned literals
c minimized:                     0         0.00 %  learned literals
c shrunken:                 607366        48.17 %  learned literals
c minishrunken:             150046        11.90 %  learned literals
c propagations:            1406167         0.03 M  per second
c reduced:                    2628        33.32 %  per conflict
c rephased:                      3      2629.00    interval
c restarts:                    446        17.68    interval
c stabilizing:                   2        36.59 %  of conflicts
c substituted:                  12         0.19 %  of all variables
c subsumed:                   1653         0.05 %  of all clauses
c ternary:                     735         0.52 %  of resolved
c weakened:                     24         2.00    average size
c 
c seconds are measured in process time for solving
c 
c --- [ resources ] ----------------------------------------------------------
c 
c total process time since initialization:        74.89    seconds
c total real time since initialization:           75.33    seconds
c maximum resident set size of process:         1751.38    MB
c 
c --- [ shutting down ] ------------------------------------------------------
c 
c exit 10
WARNING! DIMACS header mismatch: wrong number of variables.
============================[ Problem Statistics ]=============================
|                                                                             |
|  Number of variables:          6120                                         |
|  Number of clauses:          520943                                         |
|  Parse time:                   2.99 s                                       |
|  Simplification time:          0.10 s                                       |
|                                                                             |
============================[ Search Statistics ]====================================================
| Conflicts |          ORIGINAL         |          LEARNT          | Num Sols |      SUBGRAPHS      |
|           |    Vars  Clauses Literals |    Limit  Clauses Lit/Cl |          | Canonical Noncanon. |
=====================================================================================================
|       102 |    6029   520945 47560548 |     2000      102    116 |        0 |        14         2 |
|       289 |    6029   520982 47561278 |     2000      289     80 |        0 |        40        39 |
|       665 |    6029   521133 47564429 |     2000      665     63 |        0 |       107       190 |
|      1215 |    6029   521346 47569269 |     2000     1215     65 |        0 |       131       403 |
|      1912 |    6029   521537 47573450 |     2000     1912     71 |        0 |       185       594 |
|      2770 |    6029   521636 47575897 |     3600     1770     55 |        0 |       249       693 |
|      4172 |    6029   521899 47580747 |     3600     3172     69 |        0 |       361       956 |
|      6073 |    6029   522092 47584822 |     5001     3274     54 |        0 |       402      1149 |
|      8743 |    6029   522200 47586840 |     6304     3447     47 |        0 |       457      1257 |
|     14540 |    6029   524153 47626806 |     7555     6095     39 |        0 |       759      3210 |
|     24906 |    6029   528753 47703955 |    10000     8306     52 |        0 |      1450      7810 |
|     34554 |    6029   529752 47726628 |    12407     7361     38 |        0 |      1743      8809 |
|     49348 |    6029   531572 47767097 |    14802     9150     42 |        0 |      2102     10629 |
|     70537 |    6029   533300 47802333 |    17208    14945     55 |        0 |      2691     12357 |
|    101396 |    6029   534967 47835522 |    20808    18204     66 |        0 |      4057     14024 |
|    148069 |    6029   537851 47882290 |    25612    19681     58 |        0 |      4984     16908 |
|    217896 |    6029   541994 47964518 |    31618    19514     49 |        0 |      6650     21051 |
|    327270 |    6029   552842 48164601 |    38807    25077     50 |        0 |     10818     31899 |
|    517710 |    6029   595493 49107659 |    48426    43536     45 |        0 |     15476     74550 |
|    771142 |    6029   627242 49764864 |    59222    57564     54 |        0 |     22256    106299 |
|   1208571 |    6029   732146 51363018 |    74815    63386     53 |        0 |     48828    211203 |
|   1776711 |    6029   801498 52447033 |    91629    53340     36 |        0 |     72330    280555 |
|   2553828 |    6029   830433 53056146 |   109623    80451     54 |        0 |     94475    309490 |
|   3992189 |    6019   673107 42586823 |   137217   106606     45 |        0 |    151937    625577 |
=====================================================================================================
Number of solutions   : 0
Canonical subgraphs   : 180779         (20 /sec)
          order  3    : 1              (200000 /sec)
          order  4    : 1              (500000 /sec)
          order  5    : 1              (250000 /sec)
          order  6    : 1              (55556 /sec)
          order  7    : 1              (8850 /sec)
          order  8    : 2              (1388 /sec)
          order  9    : 7              (352 /sec)
          order 10    : 36             (122 /sec)
          order 11    : 231            (50 /sec)
          order 12    : 1225           (23 /sec)
          order 13    : 3261           (15 /sec)
          order 14    : 26892          (17 /sec)
          order 15    : 39361          (22 /sec)
          order 16    : 59505          (23 /sec)
          order 17    : 36683          (18 /sec)
          order 18    : 10104          (20 /sec)
          order 19    : 2345           (21 /sec)
          order 20    : 634            (25 /sec)
          order 21    : 488            (26 /sec)
          order 22    : 0              (-nan /sec)
Noncanonical subgraphs: 685207         (139 /sec)
          order  3    : 0              (-nan /sec)
          order  4    : 0              (-nan /sec)
          order  5    : 0              (-nan /sec)
          order  6    : 0              (-nan /sec)
          order  7    : 0              (-nan /sec)
          order  8    : 0              (-nan /sec)
          order  9    : 0              (-nan /sec)
          order 10    : 0              (-nan /sec)
          order 11    : 0              (-nan /sec)
          order 12    : 0              (-nan /sec)
          order 13    : 12984          (3599 /sec)
          order 14    : 53961          (928 /sec)
          order 15    : 522669         (124 /sec)
          order 16    : 69214          (178 /sec)
          order 17    : 25792          (110 /sec)
          order 18    : 47             (145 /sec)
          order 19    : 18             (390 /sec)
          order 20    : 1              (25000 /sec)
          order 21    : 1              (25641 /sec)
Canonicity checking   : 8971.55 s
Noncanonicity checking: 4914.47 s
Total canonicity time : 13886 s
database reductions   : 122
restarts              : 8189
conflicts             : 4678568        (266 /sec)
decisions             : 6349168        (0.00 % random) (361 /sec)
propagations          : 502588294      (28569 /sec)
conflict literals     : 461459192      (53.83 % deleted)
actual reward         : 0.120747
Memory used           : 783.00 MB
CPU time              : 17592.3 s

UNSATISFIABLE
